experiments/eusolverbv/6/DirectTrainGenes/00110011010010010111001100101000100101001110111/281_.sl

(set-logic BV)

(define-fun shr1 ((x (BitVec 64))) (BitVec 64) (bvlshr x #x0000000000000001))
(define-fun shr4 ((x (BitVec 64))) (BitVec 64) (bvlshr x #x0000000000000004))
(define-fun shr16 ((x (BitVec 64))) (BitVec 64) (bvlshr x #x0000000000000010))
(define-fun shl1 ((x (BitVec 64))) (BitVec 64) (bvshl x #x0000000000000001))
(define-fun if0 ((x (BitVec 64)) (y (BitVec 64)) (z (BitVec 64))) (BitVec 64) (ite (= x #x0000000000000001) y z))
(define-fun func26  ((A (BitVec 64)) (B (BitVec 64)) (C (BitVec 64)) (D (BitVec 64)) ) (BitVec 64) (bvand (bvlshr (bvlshr C  D ) B ) A ))
(define-fun func27  ((A (BitVec 64)) (B (BitVec 64)) (C (BitVec 64)) ) (BitVec 64) (bvand (bvlshr B  C ) A ))
(define-fun func28  ((A (BitVec 64)) (B (BitVec 64)) ) (BitVec 64) (bvand (bvlshr B  #x0000000000000001 ) A ))
(define-fun func29  ((A (BitVec 64)) (B (BitVec 64)) ) (BitVec 64) (bvand (bvlshr B  #x0000000000000010 ) A ))
(define-fun func30  ((A (BitVec 64)) (B (BitVec 64)) ) (BitVec 64) (bvand (bvlshr B  #x0000000000000004 ) A ))
(define-fun func31  ((A (BitVec 64)) (B (BitVec 64)) ) (BitVec 64) (bvand (bvlshr A  B ) #x0000000000000001 ))
(define-fun func32  ((A (BitVec 64)) ) (BitVec 64) (bvand A  #x0000000000000001 ))
(define-fun func33  ((A (BitVec 64)) (B (BitVec 64)) (C (BitVec 64)) (D (BitVec 64)) ) (BitVec 64) (bvlshr (bvlshr (bvlshr C  D ) B ) A ))
(define-fun func34  ((A (BitVec 64)) (B (BitVec 64)) (C (BitVec 64)) ) (BitVec 64) (bvlshr (bvlshr (bvlshr C  #x0000000000000010 ) B ) A ))
(define-fun func35  ((A (BitVec 64)) (B (BitVec 64)) (C (BitVec 64)) ) (BitVec 64) (bvlshr (bvlshr B  C ) A ))
(define-fun func36  ((A (BitVec 64)) (B (BitVec 64)) ) (BitVec 64) (bvlshr (bvlshr B  #x0000000000000010 ) A ))
(define-fun func37  ((A (BitVec 64)) (B (BitVec 64)) ) (BitVec 64) (bvlshr (bvlshr B  #x0000000000000004 ) A ))
(define-fun func38  ((A (BitVec 64)) (B (BitVec 64)) ) (BitVec 64) (bvlshr (bvlshr B  #x0000000000000001 ) A ))
(define-fun func39  ((A (BitVec 64)) (B (BitVec 64)) ) (BitVec 64) (bvlshr (bvlshr A  B ) #x0000000000000001 ))
(define-fun func40  ((A (BitVec 64)) (B (BitVec 64)) ) (BitVec 64) (bvlshr (bvlshr A  B ) #x0000000000000004 ))
(define-fun func41  ((A (BitVec 64)) (B (BitVec 64)) ) (BitVec 64) (bvlshr A  B ))
(define-fun func42  ((A (BitVec 64)) (B (BitVec 64)) (C (BitVec 64)) ) (BitVec 64) (bvlshr (bvshl B  C ) A ))
(define-fun func43  ((A (BitVec 64)) (B (BitVec 64)) ) (BitVec 64) (bvlshr (bvshl B  #x0000000000000001 ) A ))
(define-fun func44  ((A (BitVec 64)) (B (BitVec 64)) (C (BitVec 64)) ) (BitVec 64) (bvlshr (bvadd B  C ) A ))
(define-fun func45  ((A (BitVec 64)) (B (BitVec 64)) ) (BitVec 64) (bvlshr (bvnot B ) A ))
(define-fun func46  ((A (BitVec 64)) ) (BitVec 64) (bvlshr (bvnot #x0000000000000000 ) A ))
(define-fun func47  ((A (BitVec 64)) ) (BitVec 64) (bvlshr (bvnot A ) #x0000000000000010 ))
(define-fun func48  ((A (BitVec 64)) (B (BitVec 64)) (C (BitVec 64)) ) (BitVec 64) (bvor (bvlshr B  C ) A ))
(define-fun func49  ((A (BitVec 64)) ) (BitVec 64) (bvor A  #x0000000000000001 ))
(define-fun func50  ((A (BitVec 64)) (B (BitVec 64)) (C (BitVec 64)) ) (BitVec 64) (bvshl (bvlshr B  C ) A ))
(define-fun func51  ((A (BitVec 64)) (B (BitVec 64)) ) (BitVec 64) (bvshl (bvlshr B  #x0000000000000001 ) A ))
(define-fun func52  ((A (BitVec 64)) (B (BitVec 64)) ) (BitVec 64) (bvshl (bvlshr A  B ) #x0000000000000001 ))
(define-fun func54  ((A (BitVec 64)) (B (BitVec 64)) (C (BitVec 64)) ) (BitVec 64) (bvshl (bvshl B  C ) A ))
(define-fun func55  ((A (BitVec 64)) (B (BitVec 64)) ) (BitVec 64) (bvshl (bvshl B  #x0000000000000001 ) A ))
(define-fun func56  ((A (BitVec 64)) (B (BitVec 64)) ) (BitVec 64) (bvshl (bvshl A  B ) #x0000000000000001 ))
(define-fun func57  ((A (BitVec 64)) (B (BitVec 64)) ) (BitVec 64) (bvshl (bvnot B ) A ))
(define-fun func58  ((A (BitVec 64)) ) (BitVec 64) (bvshl (bvnot A ) #x0000000000000001 ))
(define-fun func59  ((A (BitVec 64)) (B (BitVec 64)) (C (BitVec 64)) ) (BitVec 64) (bvadd (bvlshr B  C ) A ))
(define-fun func60  ((A (BitVec 64)) ) (BitVec 64) (bvadd A  #x0000000000000001 ))
(define-fun func61  ((A (BitVec 64)) (B (BitVec 64)) (C (BitVec 64)) ) (BitVec 64) (bvadd (bvshl B  C ) A ))
(define-fun func62  ((A (BitVec 64)) (B (BitVec 64)) ) (BitVec 64) (bvadd (bvshl B  #x0000000000000001 ) A ))
(define-fun func63  ((A (BitVec 64)) ) (BitVec 64) (bvnot (bvshl A  #x0000000000000001 )))
(synth-fun f ( (x (BitVec 64))) (BitVec 64)
(
(Start (BitVec 64) (
   #x0000000000000000
   #x0000000000000001
   x
   (func28 Start Start)
   (func29 Start Start)
   (func32 Start)
   (func33 Start Start Start Start)
   (func35 Start Start Start)
   (func38 Start Start)
   (func41 Start Start)
   (func43 Start Start)
   (func44 Start Start Start)
   (func45 Start Start)
   (func48 Start Start Start)
   (func49 Start)
   (func52 Start Start)
   (func55 Start Start)
   (func59 Start Start Start)
   (func62 Start Start)
   (shl1 Start)
   (shr1 Start)
   (bvor Start Start)
   (if0 Start Start Start)
))
))
(constraint (= (f #x7b876dd1afe65456) #xc23c4917280cd5d4))
(constraint (= (f #xbec03f359b29edcb) #xa09fe065326b091a))
(constraint (= (f #x27261235db5f4b43) #xec6cf6e512505a5e))
(constraint (= (f #xea2a045dae9752d8) #x8aeafdd128b45693))
(constraint (= (f #x5d75032eece39b8a) #xd1457e68898e323a))
(constraint (= (f #x8000000000000000) #xbfffffffffffffff))
(constraint (= (f #x0000000000000000) #xffffffffffffffff))
(constraint (= (f #x0000000000000001) #xffffffffffffffff))
(constraint (= (f #xaa87754d3e75bbeb) #xff1fffbefdfffffe))
(constraint (= (f #x5ee084d5ce03d0f1) #xffc31bffbc0fe3e6))
(constraint (= (f #x87956b56289ac8fc) #x1f7ffffcf37fb3f8))
(constraint (= (f #xdbd9c2e04c0fe37b) #xfff78fc1b83fcffe))
(constraint (= (f #xb84281c031ae2f63) #xf18f0780e7fcffce))
(constraint (= (f #xffffffffffffffff) #x8000000000000000))
(constraint (= (f #xf0f0f0f0f0f0f0f2) #xe3e3e3e3e3e3e3ec))
(constraint (= (f #xe8e00aff4f2f1d5a) #x8b8ffa8058687152))
(constraint (= (f #xbc6c33b8ee97dd5f) #xa1c9e62388b41150))
(constraint (= (f #xa87d36c5d96bc8cf) #xabc1649d134a1b98))
(constraint (= (f #x24677e8cfe551cf9) #xd9dfff3bfdfe7bf6))
(constraint (= (f #x45cf3aa017840f30) #x9fbeffc07f183ee0))
(constraint (= (f #x9457b0c5b8d75442) #xb5d4279d239455de))
(constraint (= (f #xad22d1525b545064) #xfecfe7edfff9e1d8))
(constraint (= (f #x49ce5edda88a4b13) #xdb18d0912bbada76))
(constraint (= (f #x36423cfb2bf7d674) #xfd8cfbfefffffdf8))
(constraint (= (f #x91febf2c2be475a8) #x67fffef8ffd9fff0))
(constraint (= (f #x0000000000000001) #xffffffffffffffff))
(constraint (= (f #xffffffffffffffff) #x8000000000000000))
(constraint (= (f #x7fffffffffffffff) #xfffffffffffffffe))
(constraint (= (f #xfffffffffffffffe) #xfffffffffffffffc))
(constraint (= (f #x07454dbbce2295b3) #x1f9fbfffbccf7fee))
(constraint (= (f #xf0f0f0f0f0f0f0f2) #xe3e3e3e3e3e3e3ec))
(check-synth)
