experiments/eusolverbv/6/DirectTrainGenes/00110011010010010111001100101000100101001110111/281_.out
(define-fun f ((x (BitVec 64))) (BitVec 64)
     (if0 (func43 #x0000000000000001 (func49 x)) (func45 #x0000000000000000 (shr1 x)) (if0 (func45 #x0000000000000000 x) (shl1 (bvor (shl1 x) x)) (if0 (func28 #x0000000000000001 (func28 x x)) (if0 (func45 #x0000000000000000 (shl1 x)) (if0 (func62 x #x0000000000000001) (func45 #x0000000000000000 (shr1 x)) (shl1 (bvor (shl1 x) x))) (func45 #x0000000000000000 (shr1 x))) (if0 (func29 #x0000000000000001 (shl1 x)) (if0 (func29 #x0000000000000001 x) (if0 (func28 #x0000000000000001 x) (if0 (func29 #x0000000000000001 (func38 #x0000000000000001 x)) (shl1 (bvor (shl1 x) x)) (func45 #x0000000000000000 (shr1 x))) (shl1 (bvor (shl1 x) x))) (shl1 (bvor (shl1 x) x))) (if0 (func29 #x0000000000000001 (shr1 x)) (if0 (func29 #x0000000000000001 x) (func45 #x0000000000000000 (shr1 x)) (if0 (func29 #x0000000000000001 (func38 #x0000000000000001 x)) (shl1 (bvor (shl1 x) x)) (func45 #x0000000000000000 (shr1 x)))) (shl1 (bvor (shl1 x) x))))))))
3.052447559311986
